Version identifier: 22.1.0.0 | 2022-03-09 | 1a383f8ce
CPXPARAM_Threads                                 1
CPXPARAM_MIP_Strategy_VariableSelect             3
CPXPARAM_TimeLimit                               600
Tried aggregator 1 time.
MIP Presolve eliminated 7 rows and 0 columns.
MIP Presolve modified 1 coefficients.
Reduced MIP has 1812 rows, 5701 columns, and 65935 nonzeros.
Reduced MIP has 5700 binaries, 0 generals, 0 SOSs, and 0 indicators.
Presolve time = 0.03 sec. (21.29 ticks)
Found incumbent of value 49.000000 after 0.07 sec. (54.46 ticks)
Probing time = 0.00 sec. (3.50 ticks)
Tried aggregator 1 time.
Detecting symmetries...
Reduced MIP has 1812 rows, 5701 columns, and 65935 nonzeros.
Reduced MIP has 5700 binaries, 0 generals, 0 SOSs, and 0 indicators.
Presolve time = 0.03 sec. (26.45 ticks)
Probing time = 0.00 sec. (3.50 ticks)
Clique table members: 300.
MIP emphasis: balance optimality and feasibility.
MIP search method: dynamic search.
Parallel mode: none, using 1 thread.
Root relaxation solution time = 1.24 sec. (1297.25 ticks)

        Nodes                                         Cuts/
   Node  Left     Objective  IInf  Best Integer    Best Bound    ItCnt     Gap

*     0+    0                           49.0000        0.0000           100.00%
      0     0        0.0000  1313       49.0000        0.0000     4587  100.00%
*     0+    0                            3.0000        0.0000           100.00%
*     0+    0                            2.0000        0.0000           100.00%
*     0+    0                            1.0000        0.0000           100.00%
Detecting symmetries...
      0     2        0.0000   882        1.0000        0.0000     4587  100.00%
Elapsed time = 17.88 sec. (18388.21 ticks, tree = 0.01 MB, solutions = 4)
      1     3        0.2500   644        1.0000        0.0000    12048  100.00%
      2     4        0.0000  1140        1.0000        0.0000    17958  100.00%
      3     5        0.0000  1203        1.0000        0.0000    23863  100.00%
      4     6        0.0000  1114        1.0000        0.0000    23970  100.00%
      5     7        0.0000  1161        1.0000        0.0000    29422  100.00%
      6     8        0.0000  1118        1.0000        0.0000    29447  100.00%
      7     9       -0.0000  1266        1.0000        0.0000    31727  100.00%
      8    10        0.0000  1155        1.0000        0.0000    31866  100.00%
      9    11        0.0000  1216        1.0000        0.0000    32499  100.00%
     10    12        0.0000  1142        1.0000        0.0000    32521  100.00%
Elapsed time = 30.73 sec. (32282.51 ticks, tree = 0.11 MB, solutions = 4)
     11    13        0.0000  1181        1.0000        0.0000    34476  100.00%
     14    16        0.0000  1241        1.0000        0.0000    35371  100.00%
     17    19        0.0000  1220        1.0000        0.0000    35961  100.00%
     20    22        0.0000  1180        1.0000        0.0000    36464  100.00%
     23    25        0.0000  1177        1.0000        0.0000    37361  100.00%
     25    27        0.0000  1164        1.0000        0.0000    37750  100.00%
     28    30        0.0000  1284        1.0000        0.0000    39179  100.00%
     30    32        0.0000  1229        1.0000        0.0000    40735  100.00%
     32    34        0.0000  1271        1.0000        0.0000    41845  100.00%
     34    36        0.0000  1142        1.0000        0.0000    42675  100.00%
Elapsed time = 45.14 sec. (48705.47 ticks, tree = 0.49 MB, solutions = 4)
     36    38        0.3333   621        1.0000        0.0000    53238  100.00%
     37    39        0.5000   337        1.0000        0.0000    60385  100.00%
     40    42        0.0000  1251        1.0000        0.0000    61132  100.00%
     42    44        0.0000  1176        1.0000        0.0000    62193  100.00%
     44    46       -0.0000  1265        1.0000        0.0000    63093  100.00%
     46    48       -0.0000  1265        1.0000        0.0000    63750  100.00%
     48    50        0.1111   954        1.0000        0.0000    71811  100.00%
     51    53       -0.0000  1170        1.0000        0.0000    73103  100.00%
     53    55        0.0000  1096        1.0000        0.0000    80421  100.00%
     54    56        0.0001  1233        1.0000        0.0000   117785  100.00%
Elapsed time = 72.88 sec. (79412.17 ticks, tree = 0.80 MB, solutions = 4)
     56    58       -0.0000  1111        1.0000        0.0000   118133  100.00%
     58    60        0.0000  1010        1.0000        0.0000   130058  100.00%
     61    63        0.0003  1131        1.0000        0.0000   132367  100.00%
     63    65        0.0000  1002        1.0000        0.0000   142384  100.00%
     64    66       -0.0000  1040        1.0000        0.0000   160518  100.00%
     67    69       -0.0000   945        1.0000        0.0000   163140  100.00%
     69    71       -0.0000   904        1.0000        0.0000   164353  100.00%
     71    73        0.0004  1198        1.0000        0.0000   165908  100.00%
     73    75        0.0001  1202        1.0000        0.0000   167317  100.00%
     75    77        0.0000   917        1.0000        0.0000   168720  100.00%
Elapsed time = 97.24 sec. (106815.08 ticks, tree = 0.99 MB, solutions = 4)
     77    79        0.0000   915        1.0000        0.0000   170332  100.00%
     79    81        0.0000   909        1.0000        0.0000   171569  100.00%
     80    82        0.0002  1207        1.0000        0.0000   172114  100.00%
     82    84        0.0004  1129        1.0000        0.0000   174226  100.00%
     83    85        0.0000  1215        1.0000        0.0000   175678  100.00%
     84    86        0.0000   939        1.0000        0.0000   196615  100.00%
     86    88        0.3333   577        1.0000        0.0000   199643  100.00%
     89    91        0.0000  1154        1.0000        0.0000   200421  100.00%
     92    94        0.0000  1180        1.0000        0.0000   201161  100.00%
     95    97        0.0000  1153        1.0000        0.0000   202119  100.00%
Elapsed time = 115.16 sec. (127244.23 ticks, tree = 1.04 MB, solutions = 4)
     97    99        0.0032  1118        1.0000        0.0000   204780  100.00%
     99   101        0.0035  1142        1.0000        0.0000   207650  100.00%
    100   102        0.0000  1163        1.0000        0.0000   207817  100.00%
    104   106        0.0004  1232        1.0000        0.0000   209330  100.00%
    108   110        0.0000  1161        1.0000        0.0000   209643  100.00%
    110   112        0.0082  1134        1.0000        0.0000   210323  100.00%
    113   115        0.0036  1125        1.0000        0.0000   212728  100.00%
    116   118        0.0000  1154        1.0000        0.0000   213127  100.00%
    118   120        0.0005  1190        1.0000        0.0000   215604  100.00%
    120   122        0.0002  1167        1.0000        0.0000   217839  100.00%
Elapsed time = 136.04 sec. (150163.27 ticks, tree = 1.10 MB, solutions = 4)
    122   124        0.0000  1204        1.0000        0.0000   218967  100.00%
    124   126        0.3333   643        1.0000        0.0000   221368  100.00%
    129   131        0.0082  1141        1.0000        0.0000   222177  100.00%
    130   132        0.0000  1165        1.0000        0.0000   222178  100.00%
    134   136        0.0029  1129        1.0000        0.0000   224768  100.00%
    137   139        0.0000  1156        1.0000        0.0000   225245  100.00%
    140   142        0.0000  1165        1.0000        0.0000   225774  100.00%
    141   143        0.0007  1144        1.0000        0.0000   227841  100.00%
    144   146        0.0006  1139        1.0000        0.0000   229868  100.00%
    149   151        0.0000  1185        1.0000        0.0000   229873  100.00%
Elapsed time = 149.25 sec. (165257.96 ticks, tree = 1.17 MB, solutions = 4)
    152   154        0.0000  1182        1.0000        0.0000   230495  100.00%
    155   157        0.0002  1213        1.0000        0.0000   232047  100.00%
    159   161        0.0000  1171        1.0000        0.0000   232356  100.00%
    162   164        0.0000  1171        1.0000        0.0000   232970  100.00%
    165   167        0.0000  1153        1.0000        0.0000   233457  100.00%
    168   170        0.0082  1136        1.0000        0.0000   234122  100.00%
    170   172        0.0004  1189        1.0000        0.0000   236658  100.00%
    175   177        0.0082  1098        1.0000        0.0000   237220  100.00%
    180   182        0.0000  1157        1.0000        0.0000   237225  100.00%
    183   185        0.0000  1158        1.0000        0.0000   237958  100.00%
Elapsed time = 163.76 sec. (181494.83 ticks, tree = 1.25 MB, solutions = 4)
    184   186        0.0027  1109        1.0000        0.0000   240407  100.00%
    188   190        0.0034  1120        1.0000        0.0000   243060  100.00%
    191   193        0.0028  1124        1.0000        0.0000   245668  100.00%
    194   196        0.0000  1242        1.0000        0.0000   247350  100.00%
    195   197        0.0000  1136        1.0000        0.0000   250194  100.00%
    197   199        0.0082  1199        1.0000        0.0000   251042  100.00%
    200   202        0.0000  1131        1.0000        0.0000   251313  100.00%
    205   207        0.0000  1131        1.0000        0.0000   251361  100.00%
    209   211        0.0000  1145        1.0000        0.0000   252077  100.00%
    211   213        0.0000  1132        1.0000        0.0000   255959  100.00%
Elapsed time = 177.99 sec. (197930.46 ticks, tree = 1.32 MB, solutions = 4)
    216   218        0.0000  1132        1.0000        0.0000   255964  100.00%
    219   221        0.0000  1132        1.0000        0.0000   256646  100.00%
    221   223        0.0003  1183        1.0000        0.0000   258326  100.00%
    223   225        0.0001  1214        1.0000        0.0000   259242  100.00%
    227   229        0.0000  1162        1.0000        0.0000   259248  100.00%
    230   232        0.0000  1152        1.0000        0.0000   260194  100.00%
    232   234        0.5000   402        1.0000        0.0000   263224  100.00%
    237   239        0.0082  1142        1.0000        0.0000   263707  100.00%
    240   242        0.0000  1150        1.0000        0.0000   263959  100.00%
    248   250        0.0003  1165        1.0000        0.0000   268537  100.00%
Elapsed time = 192.31 sec. (214501.18 ticks, tree = 1.41 MB, solutions = 4)
    256   258        0.0004  1195        1.0000        0.0000   272302  100.00%
    263   265        0.0002  1192        1.0000        0.0000   277213  100.00%
    271   273        0.0002  1152        1.0000        0.0000   282300  100.00%
    280   282        0.0000  1113        1.0000        0.0000   284835  100.00%
    286   288        0.0000  1050        1.0000        0.0000   290286  100.00%
    292   294        0.0000  1065        1.0000        0.0000   295230  100.00%
    298   300        0.0023  1158        1.0000        0.0000   300053  100.00%
    306   308        0.0000  1083        1.0000        0.0000   303980  100.00%
    313   315        0.0000  1156        1.0000        0.0000   308627  100.00%
    320   322        0.0000  1071        1.0000        0.0000   312021  100.00%
Elapsed time = 230.07 sec. (259102.69 ticks, tree = 1.59 MB, solutions = 4)
    330   332        0.0016  1105        1.0000        0.0000   314970  100.00%
    338   340        0.0000  1091        1.0000        0.0000   318860  100.00%
    347   349        0.0082  1124        1.0000        0.0000   322767  100.00%
    355   357        0.0014  1130        1.0000        0.0000   327698  100.00%
    361   363        0.0014  1108        1.0000        0.0000   333093  100.00%
    370   372        0.0000  1079        1.0000        0.0000   336954  100.00%
    376   378        0.0000  1061        1.0000        0.0000   343814  100.00%
    385   387        0.0000  1078        1.0000        0.0000   347632  100.00%
    393   395        0.0013  1123        1.0000        0.0000   353989  100.00%
    404   406        0.0000  1091        1.0000        0.0000   356632  100.00%
Elapsed time = 266.60 sec. (302778.91 ticks, tree = 1.79 MB, solutions = 4)
    410   412        0.0000  1160        1.0000        0.0000   362423  100.00%
    418   420        0.0002  1164        1.0000        0.0000   366585  100.00%
    425   427        0.0011  1076        1.0000        0.0000   371418  100.00%
    432   434        0.0000  1077        1.0000        0.0000   375770  100.00%
    439   441        0.0000  1094        1.0000        0.0000   380100  100.00%
    446   448        0.0000  1093        1.0000        0.0000   384524  100.00%
    455   457        0.0000  1072        1.0000        0.0000   388515  100.00%
    460   462        0.0000  1100        1.0000        0.0000   392300  100.00%
    467   469        0.0082  1207        1.0000        0.0000   400459  100.00%
    475   477        0.0000  1073        1.0000        0.0000   403450  100.00%
Elapsed time = 302.56 sec. (345347.31 ticks, tree = 1.96 MB, solutions = 4)
    481   482        0.3333   637        1.0000        0.0000   413927  100.00%
    487   487        0.0082  1090        1.0000        0.0000   424665  100.00%
    498   498       -0.0000   917        1.0000        0.0000   425544  100.00%

Performing restart 1

Repeating presolve.
Tried aggregator 1 time.
Reduced MIP has 1812 rows, 5701 columns, and 65935 nonzeros.
Reduced MIP has 5700 binaries, 0 generals, 0 SOSs, and 0 indicators.
Presolve time = 0.03 sec. (23.16 ticks)
Tried aggregator 1 time.
Reduced MIP has 1812 rows, 5701 columns, and 65935 nonzeros.
Reduced MIP has 5700 binaries, 0 generals, 0 SOSs, and 0 indicators.
Presolve time = 0.03 sec. (30.22 ticks)
Represolve time = 0.17 sec. (158.66 ticks)
    502     0        0.0000  1182        1.0000      Cuts: 33   436571  100.00%
    502     0        0.0000  1133        1.0000      Cuts: 29   440988  100.00%
    502     0        0.0000  1109        1.0000      Cuts: 41   446965  100.00%
    502     0        0.0000  1178        1.0000      Cuts: 45   451933  100.00%
    502     0        0.0000  1222        1.0000      Cuts: 47   457717  100.00%
    502     0        0.0000  1113        1.0000      Cuts: 19   462893  100.00%
    502     0        0.0000  1168        1.0000      Cuts: 27   469836  100.00%
    502     0        0.0000  1184        1.0000      Cuts: 75   474966  100.00%
    502     2        0.0000   862        1.0000        0.0000   474966  100.00%
    505     5        0.0000  1165        1.0000        0.0000   490383  100.00%
    508     8        0.0000  1137        1.0000        0.0000   496317  100.00%
    514    14       -0.0000  1155        1.0000        0.0000   503166  100.00%
    523    23        0.0000  1097        1.0000        0.0000   505692  100.00%
    530    30        0.0000  1136        1.0000        0.0000   517689  100.00%
    532    32        0.0000  1130        1.0000        0.0000   519070  100.00%
Elapsed time = 522.92 sec. (562058.95 ticks, tree = 0.10 MB, solutions = 4)
    540    40       -0.0000  1121        1.0000        0.0000   523173  100.00%
    549    49       -0.0000  1124        1.0000        0.0000   527143  100.00%
    559    59       -0.0000  1141        1.0000        0.0000   531522  100.00%
    567    67        0.0000  1096        1.0000        0.0000   536165  100.00%
    574    74        0.0000  1098        1.0000        0.0000   542681  100.00%
    580    80        0.0000  1180        1.0000        0.0000   551771  100.00%
    587    87        0.0002  1235        1.0000        0.0000   571484  100.00%
    593    93        0.0000  1106        1.0000        0.0000   575696  100.00%
    601   101        0.0000  1050        1.0000        0.0000   579631  100.00%
Starting limited solution polishing.
    602   102        0.1111   857        1.0000        0.0000   584869  100.00%
Elapsed time = 579.62 sec. (619781.06 ticks, tree = 1.25 MB, solutions = 4)
    606   106        0.0000  1050        1.0000        0.0000   601114  100.00%
    608   108        0.0000  1060        1.0000        0.0000   610223  100.00%
    616   116        0.0000  1022        1.0000        0.0000   620781  100.00%
    619   119        0.0000  1014        1.0000        0.0000   638408  100.00%

Clique cuts applied:  20
Zero-half cuts applied:  11

Root node processing (before b&c):
  Real time             =   17.82 sec. (18322.54 ticks)
Sequential b&c:
  Real time             =  582.18 sec. (622898.19 ticks)
                          ------------
Total (root+branch&cut) =  600.00 sec. (641220.73 ticks)
Primal:	1
Dual:	0
Status:	Feasible
Time:	599.96
Sequence:
	3
	15
	15
	10
	10
	10
	2
	10
	2
	4
	7
	2
	11
	7
	4
	5
	5
	6
	15
	6
	18
	5
	4
	5
	15
	18
	0
	11
	10
	1
	0
	10
	10
	0
	1
	5
	0
	10
	16
	1
	5
	10
	15
	0
	5
	2
	2
	10
	10
	10
	3
	4
	15
	10
	5
	0
	5
	5
	15
	8
	5
	13
	5
	15
	6
	5
	15
	18
	0
	7
	5
	5
	10
	8
	7
	15
	15
	15
	15
	15
	16
	15
	6
	8
	0
	10
	0
	0
	10
	14
	0
	14
	13
	10
	2
	1
	1
	18
	8
	15
	5
	7
	10
	15
	7
	7
	15
	15
	15
	7
	0
	10
	10
	13
	15
	7
	5
	15
	15
	12
	8
	10
	13
	10
	8
	10
	2
	12
	10
	10
	3
	0
	0
	4
	15
	4
	5
	15
	15
	15
	7
	7
	5
	8
	8
	4
	7
	15
	4
	8
	9
	15
	18
	5
	5
	5
	15
	5
	13
	0
	10
	10
	15
	15
	10
	10
	10
	5
	13
	4
	10
	4
	15
	0
	10
	7
	10
	7
	5
	15
	15
	7
	5
	15
	15
	5
	15
	0
	2
	8
	0
	2
	14
	15
	15
	18
	18
	0
	0
	17
	4
	0
	5
	7
	17
	5
	3
	10
	0
	10
	7
	15
	7
	15
	15
	15
	0
	0
	7
	15
	7
	2
	4
	4
	15
	7
	7
	10
	10
	7
	6
	11
	10
	0
	5
	0
	9
	17
	5
	5
	13
	12
	0
	4
	5
	0
	6
	8
	2
	5
	5
	15
	18
	8
	4
	12
	15
	7
	10
	10
	15
	0
	10
	18
	17
	15
	3
	0
	2
	2
	10
	10
	10
	0
	12
	17
	15
	15
	10
	12
	0
	13
	0
	10
	15
	6
	15
	6
	15
	10
	15
	15
	15
	5
	10
	5
	15
	7
	2
	10
